c File: flat175_3_0.col
c
c SOURCE: Joseph Culberson (joe@cs.ualberta.ca)
c DESCRIPTION: Quasi-random coloring problem
c              generated with flatness = 0
c                             probability = 0.041
c                             known coloring = 3
c                             random seed = 1093
c              Creation Date:  Wed Feb 24 10:55:37 1999
c Maximum degree = 8 Minimum degree = 0
c COLOR VERIFICATION: Using the permuted order
c under simple greedy yields the specified
c coloring number
c Color = 3 specified partitions = 3
c p edge 175 417
c cnf created by edge2cnf
p cnf 525 1951
-1 -2 0
-1 -3 0
-2 -3 0
1 2 3 0
-4 -5 0
-4 -6 0
-5 -6 0
4 5 6 0
-7 -8 0
-7 -9 0
-8 -9 0
7 8 9 0
-10 -11 0
-10 -12 0
-11 -12 0
10 11 12 0
-13 -14 0
-13 -15 0
-14 -15 0
13 14 15 0
-16 -17 0
-16 -18 0
-17 -18 0
16 17 18 0
-19 -20 0
-19 -21 0
-20 -21 0
19 20 21 0
-22 -23 0
-22 -24 0
-23 -24 0
22 23 24 0
-25 -26 0
-25 -27 0
-26 -27 0
25 26 27 0
-28 -29 0
-28 -30 0
-29 -30 0
28 29 30 0
-31 -32 0
-31 -33 0
-32 -33 0
31 32 33 0
-34 -35 0
-34 -36 0
-35 -36 0
34 35 36 0
-37 -38 0
-37 -39 0
-38 -39 0
37 38 39 0
-40 -41 0
-40 -42 0
-41 -42 0
40 41 42 0
-43 -44 0
-43 -45 0
-44 -45 0
43 44 45 0
-46 -47 0
-46 -48 0
-47 -48 0
46 47 48 0
-49 -50 0
-49 -51 0
-50 -51 0
49 50 51 0
-52 -53 0
-52 -54 0
-53 -54 0
52 53 54 0
-55 -56 0
-55 -57 0
-56 -57 0
55 56 57 0
-58 -59 0
-58 -60 0
-59 -60 0
58 59 60 0
-61 -62 0
-61 -63 0
-62 -63 0
61 62 63 0
-64 -65 0
-64 -66 0
-65 -66 0
64 65 66 0
-67 -68 0
-67 -69 0
-68 -69 0
67 68 69 0
-70 -71 0
-70 -72 0
-71 -72 0
70 71 72 0
-73 -74 0
-73 -75 0
-74 -75 0
73 74 75 0
-76 -77 0
-76 -78 0
-77 -78 0
76 77 78 0
-79 -80 0
-79 -81 0
-80 -81 0
79 80 81 0
-82 -83 0
-82 -84 0
-83 -84 0
82 83 84 0
-85 -86 0
-85 -87 0
-86 -87 0
85 86 87 0
-88 -89 0
-88 -90 0
-89 -90 0
88 89 90 0
-91 -92 0
-91 -93 0
-92 -93 0
91 92 93 0
-94 -95 0
-94 -96 0
-95 -96 0
94 95 96 0
-97 -98 0
-97 -99 0
-98 -99 0
97 98 99 0
-100 -101 0
-100 -102 0
-101 -102 0
100 101 102 0
-103 -104 0
-103 -105 0
-104 -105 0
103 104 105 0
-106 -107 0
-106 -108 0
-107 -108 0
106 107 108 0
-109 -110 0
-109 -111 0
-110 -111 0
109 110 111 0
-112 -113 0
-112 -114 0
-113 -114 0
112 113 114 0
-115 -116 0
-115 -117 0
-116 -117 0
115 116 117 0
-118 -119 0
-118 -120 0
-119 -120 0
118 119 120 0
-121 -122 0
-121 -123 0
-122 -123 0
121 122 123 0
-124 -125 0
-124 -126 0
-125 -126 0
124 125 126 0
-127 -128 0
-127 -129 0
-128 -129 0
127 128 129 0
-130 -131 0
-130 -132 0
-131 -132 0
130 131 132 0
-133 -134 0
-133 -135 0
-134 -135 0
133 134 135 0
-136 -137 0
-136 -138 0
-137 -138 0
136 137 138 0
-139 -140 0
-139 -141 0
-140 -141 0
139 140 141 0
-142 -143 0
-142 -144 0
-143 -144 0
142 143 144 0
-145 -146 0
-145 -147 0
-146 -147 0
145 146 147 0
-148 -149 0
-148 -150 0
-149 -150 0
148 149 150 0
-151 -152 0
-151 -153 0
-152 -153 0
151 152 153 0
-154 -155 0
-154 -156 0
-155 -156 0
154 155 156 0
-157 -158 0
-157 -159 0
-158 -159 0
157 158 159 0
-160 -161 0
-160 -162 0
-161 -162 0
160 161 162 0
-163 -164 0
-163 -165 0
-164 -165 0
163 164 165 0
-166 -167 0
-166 -168 0
-167 -168 0
166 167 168 0
-169 -170 0
-169 -171 0
-170 -171 0
169 170 171 0
-172 -173 0
-172 -174 0
-173 -174 0
172 173 174 0
-175 -176 0
-175 -177 0
-176 -177 0
175 176 177 0
-178 -179 0
-178 -180 0
-179 -180 0
178 179 180 0
-181 -182 0
-181 -183 0
-182 -183 0
181 182 183 0
-184 -185 0
-184 -186 0
-185 -186 0
184 185 186 0
-187 -188 0
-187 -189 0
-188 -189 0
187 188 189 0
-190 -191 0
-190 -192 0
-191 -192 0
190 191 192 0
-193 -194 0
-193 -195 0
-194 -195 0
193 194 195 0
-196 -197 0
-196 -198 0
-197 -198 0
196 197 198 0
-199 -200 0
-199 -201 0
-200 -201 0
199 200 201 0
-202 -203 0
-202 -204 0
-203 -204 0
202 203 204 0
-205 -206 0
-205 -207 0
-206 -207 0
205 206 207 0
-208 -209 0
-208 -210 0
-209 -210 0
208 209 210 0
-211 -212 0
-211 -213 0
-212 -213 0
211 212 213 0
-214 -215 0
-214 -216 0
-215 -216 0
214 215 216 0
-217 -218 0
-217 -219 0
-218 -219 0
217 218 219 0
-220 -221 0
-220 -222 0
-221 -222 0
220 221 222 0
-223 -224 0
-223 -225 0
-224 -225 0
223 224 225 0
-226 -227 0
-226 -228 0
-227 -228 0
226 227 228 0
-229 -230 0
-229 -231 0
-230 -231 0
229 230 231 0
-232 -233 0
-232 -234 0
-233 -234 0
232 233 234 0
-235 -236 0
-235 -237 0
-236 -237 0
235 236 237 0
-238 -239 0
-238 -240 0
-239 -240 0
238 239 240 0
-241 -242 0
-241 -243 0
-242 -243 0
241 242 243 0
-244 -245 0
-244 -246 0
-245 -246 0
244 245 246 0
-247 -248 0
-247 -249 0
-248 -249 0
247 248 249 0
-250 -251 0
-250 -252 0
-251 -252 0
250 251 252 0
-253 -254 0
-253 -255 0
-254 -255 0
253 254 255 0
-256 -257 0
-256 -258 0
-257 -258 0
256 257 258 0
-259 -260 0
-259 -261 0
-260 -261 0
259 260 261 0
-262 -263 0
-262 -264 0
-263 -264 0
262 263 264 0
-265 -266 0
-265 -267 0
-266 -267 0
265 266 267 0
-268 -269 0
-268 -270 0
-269 -270 0
268 269 270 0
-271 -272 0
-271 -273 0
-272 -273 0
271 272 273 0
-274 -275 0
-274 -276 0
-275 -276 0
274 275 276 0
-277 -278 0
-277 -279 0
-278 -279 0
277 278 279 0
-280 -281 0
-280 -282 0
-281 -282 0
280 281 282 0
-283 -284 0
-283 -285 0
-284 -285 0
283 284 285 0
-286 -287 0
-286 -288 0
-287 -288 0
286 287 288 0
-289 -290 0
-289 -291 0
-290 -291 0
289 290 291 0
-292 -293 0
-292 -294 0
-293 -294 0
292 293 294 0
-295 -296 0
-295 -297 0
-296 -297 0
295 296 297 0
-298 -299 0
-298 -300 0
-299 -300 0
298 299 300 0
-301 -302 0
-301 -303 0
-302 -303 0
301 302 303 0
-304 -305 0
-304 -306 0
-305 -306 0
304 305 306 0
-307 -308 0
-307 -309 0
-308 -309 0
307 308 309 0
-310 -311 0
-310 -312 0
-311 -312 0
310 311 312 0
-313 -314 0
-313 -315 0
-314 -315 0
313 314 315 0
-316 -317 0
-316 -318 0
-317 -318 0
316 317 318 0
-319 -320 0
-319 -321 0
-320 -321 0
319 320 321 0
-322 -323 0
-322 -324 0
-323 -324 0
322 323 324 0
-325 -326 0
-325 -327 0
-326 -327 0
325 326 327 0
-328 -329 0
-328 -330 0
-329 -330 0
328 329 330 0
-331 -332 0
-331 -333 0
-332 -333 0
331 332 333 0
-334 -335 0
-334 -336 0
-335 -336 0
334 335 336 0
-337 -338 0
-337 -339 0
-338 -339 0
337 338 339 0
-340 -341 0
-340 -342 0
-341 -342 0
340 341 342 0
-343 -344 0
-343 -345 0
-344 -345 0
343 344 345 0
-346 -347 0
-346 -348 0
-347 -348 0
346 347 348 0
-349 -350 0
-349 -351 0
-350 -351 0
349 350 351 0
-352 -353 0
-352 -354 0
-353 -354 0
352 353 354 0
-355 -356 0
-355 -357 0
-356 -357 0
355 356 357 0
-358 -359 0
-358 -360 0
-359 -360 0
358 359 360 0
-361 -362 0
-361 -363 0
-362 -363 0
361 362 363 0
-364 -365 0
-364 -366 0
-365 -366 0
364 365 366 0
-367 -368 0
-367 -369 0
-368 -369 0
367 368 369 0
-370 -371 0
-370 -372 0
-371 -372 0
370 371 372 0
-373 -374 0
-373 -375 0
-374 -375 0
373 374 375 0
-376 -377 0
-376 -378 0
-377 -378 0
376 377 378 0
-379 -380 0
-379 -381 0
-380 -381 0
379 380 381 0
-382 -383 0
-382 -384 0
-383 -384 0
382 383 384 0
-385 -386 0
-385 -387 0
-386 -387 0
385 386 387 0
-388 -389 0
-388 -390 0
-389 -390 0
388 389 390 0
-391 -392 0
-391 -393 0
-392 -393 0
391 392 393 0
-394 -395 0
-394 -396 0
-395 -396 0
394 395 396 0
-397 -398 0
-397 -399 0
-398 -399 0
397 398 399 0
-400 -401 0
-400 -402 0
-401 -402 0
400 401 402 0
-403 -404 0
-403 -405 0
-404 -405 0
403 404 405 0
-406 -407 0
-406 -408 0
-407 -408 0
406 407 408 0
-409 -410 0
-409 -411 0
-410 -411 0
409 410 411 0
-412 -413 0
-412 -414 0
-413 -414 0
412 413 414 0
-415 -416 0
-415 -417 0
-416 -417 0
415 416 417 0
-418 -419 0
-418 -420 0
-419 -420 0
418 419 420 0
-421 -422 0
-421 -423 0
-422 -423 0
421 422 423 0
-424 -425 0
-424 -426 0
-425 -426 0
424 425 426 0
-427 -428 0
-427 -429 0
-428 -429 0
427 428 429 0
-430 -431 0
-430 -432 0
-431 -432 0
430 431 432 0
-433 -434 0
-433 -435 0
-434 -435 0
433 434 435 0
-436 -437 0
-436 -438 0
-437 -438 0
436 437 438 0
-439 -440 0
-439 -441 0
-440 -441 0
439 440 441 0
-442 -443 0
-442 -444 0
-443 -444 0
442 443 444 0
-445 -446 0
-445 -447 0
-446 -447 0
445 446 447 0
-448 -449 0
-448 -450 0
-449 -450 0
448 449 450 0
-451 -452 0
-451 -453 0
-452 -453 0
451 452 453 0
-454 -455 0
-454 -456 0
-455 -456 0
454 455 456 0
-457 -458 0
-457 -459 0
-458 -459 0
457 458 459 0
-460 -461 0
-460 -462 0
-461 -462 0
460 461 462 0
-463 -464 0
-463 -465 0
-464 -465 0
463 464 465 0
-466 -467 0
-466 -468 0
-467 -468 0
466 467 468 0
-469 -470 0
-469 -471 0
-470 -471 0
469 470 471 0
-472 -473 0
-472 -474 0
-473 -474 0
472 473 474 0
-475 -476 0
-475 -477 0
-476 -477 0
475 476 477 0
-478 -479 0
-478 -480 0
-479 -480 0
478 479 480 0
-481 -482 0
-481 -483 0
-482 -483 0
481 482 483 0
-484 -485 0
-484 -486 0
-485 -486 0
484 485 486 0
-487 -488 0
-487 -489 0
-488 -489 0
487 488 489 0
-490 -491 0
-490 -492 0
-491 -492 0
490 491 492 0
-493 -494 0
-493 -495 0
-494 -495 0
493 494 495 0
-496 -497 0
-496 -498 0
-497 -498 0
496 497 498 0
-499 -500 0
-499 -501 0
-500 -501 0
499 500 501 0
-502 -503 0
-502 -504 0
-503 -504 0
502 503 504 0
-505 -506 0
-505 -507 0
-506 -507 0
505 506 507 0
-508 -509 0
-508 -510 0
-509 -510 0
508 509 510 0
-511 -512 0
-511 -513 0
-512 -513 0
511 512 513 0
-514 -515 0
-514 -516 0
-515 -516 0
514 515 516 0
-517 -518 0
-517 -519 0
-518 -519 0
517 518 519 0
-520 -521 0
-520 -522 0
-521 -522 0
520 521 522 0
-523 -524 0
-523 -525 0
-524 -525 0
523 524 525 0
-112 -1 0
-113 -2 0
-114 -3 0
-172 -1 0
-173 -2 0
-174 -3 0
-319 -1 0
-320 -2 0
-321 -3 0
-454 -1 0
-455 -2 0
-456 -3 0
-196 -4 0
-197 -5 0
-198 -6 0
-238 -4 0
-239 -5 0
-240 -6 0
-319 -4 0
-320 -5 0
-321 -6 0
-388 -4 0
-389 -5 0
-390 -6 0
-169 -7 0
-170 -8 0
-171 -9 0
-217 -7 0
-218 -8 0
-219 -9 0
-253 -7 0
-254 -8 0
-255 -9 0
-265 -7 0
-266 -8 0
-267 -9 0
-328 -7 0
-329 -8 0
-330 -9 0
-118 -10 0
-119 -11 0
-120 -12 0
-382 -10 0
-383 -11 0
-384 -12 0
-394 -10 0
-395 -11 0
-396 -12 0
-490 -10 0
-491 -11 0
-492 -12 0
-514 -10 0
-515 -11 0
-516 -12 0
-502 -13 0
-503 -14 0
-504 -15 0
-262 -16 0
-263 -17 0
-264 -18 0
-451 -16 0
-452 -17 0
-453 -18 0
-154 -19 0
-155 -20 0
-156 -21 0
-496 -19 0
-497 -20 0
-498 -21 0
-502 -19 0
-503 -20 0
-504 -21 0
-31 -22 0
-32 -23 0
-33 -24 0
-133 -22 0
-134 -23 0
-135 -24 0
-328 -22 0
-329 -23 0
-330 -24 0
-406 -22 0
-407 -23 0
-408 -24 0
-469 -22 0
-470 -23 0
-471 -24 0
-67 -25 0
-68 -26 0
-69 -27 0
-127 -25 0
-128 -26 0
-129 -27 0
-151 -25 0
-152 -26 0
-153 -27 0
-271 -25 0
-272 -26 0
-273 -27 0
-283 -25 0
-284 -26 0
-285 -27 0
-316 -25 0
-317 -26 0
-318 -27 0
-415 -25 0
-416 -26 0
-417 -27 0
-169 -28 0
-170 -29 0
-171 -30 0
-388 -28 0
-389 -29 0
-390 -30 0
-502 -28 0
-503 -29 0
-504 -30 0
-523 -28 0
-524 -29 0
-525 -30 0
-154 -31 0
-155 -32 0
-156 -33 0
-493 -31 0
-494 -32 0
-495 -33 0
-523 -31 0
-524 -32 0
-525 -33 0
-214 -34 0
-215 -35 0
-216 -36 0
-391 -34 0
-392 -35 0
-393 -36 0
-85 -37 0
-86 -38 0
-87 -39 0
-283 -37 0
-284 -38 0
-285 -39 0
-457 -37 0
-458 -38 0
-459 -39 0
-499 -37 0
-500 -38 0
-501 -39 0
-160 -40 0
-161 -41 0
-162 -42 0
-193 -40 0
-194 -41 0
-195 -42 0
-232 -40 0
-233 -41 0
-234 -42 0
-382 -40 0
-383 -41 0
-384 -42 0
-400 -40 0
-401 -41 0
-402 -42 0
-466 -40 0
-467 -41 0
-468 -42 0
-295 -43 0
-296 -44 0
-297 -45 0
-379 -43 0
-380 -44 0
-381 -45 0
-412 -43 0
-413 -44 0
-414 -45 0
-481 -43 0
-482 -44 0
-483 -45 0
-490 -43 0
-491 -44 0
-492 -45 0
-124 -46 0
-125 -47 0
-126 -48 0
-136 -46 0
-137 -47 0
-138 -48 0
-328 -46 0
-329 -47 0
-330 -48 0
-445 -46 0
-446 -47 0
-447 -48 0
-451 -46 0
-452 -47 0
-453 -48 0
-268 -49 0
-269 -50 0
-270 -51 0
-325 -49 0
-326 -50 0
-327 -51 0
-148 -52 0
-149 -53 0
-150 -54 0
-163 -52 0
-164 -53 0
-165 -54 0
-199 -52 0
-200 -53 0
-201 -54 0
-274 -52 0
-275 -53 0
-276 -54 0
-307 -52 0
-308 -53 0
-309 -54 0
-421 -52 0
-422 -53 0
-423 -54 0
-436 -52 0
-437 -53 0
-438 -54 0
-517 -52 0
-518 -53 0
-519 -54 0
-85 -55 0
-86 -56 0
-87 -57 0
-220 -55 0
-221 -56 0
-222 -57 0
-361 -55 0
-362 -56 0
-363 -57 0
-385 -55 0
-386 -56 0
-387 -57 0
-400 -55 0
-401 -56 0
-402 -57 0
-514 -55 0
-515 -56 0
-516 -57 0
-61 -58 0
-62 -59 0
-63 -60 0
-193 -58 0
-194 -59 0
-195 -60 0
-253 -58 0
-254 -59 0
-255 -60 0
-484 -58 0
-485 -59 0
-486 -60 0
-508 -58 0
-509 -59 0
-510 -60 0
-520 -58 0
-521 -59 0
-522 -60 0
-202 -61 0
-203 -62 0
-204 -63 0
-205 -61 0
-206 -62 0
-207 -63 0
-292 -61 0
-293 -62 0
-294 -63 0
-475 -61 0
-476 -62 0
-477 -63 0
-103 -64 0
-104 -65 0
-105 -66 0
-106 -64 0
-107 -65 0
-108 -66 0
-112 -64 0
-113 -65 0
-114 -66 0
-259 -64 0
-260 -65 0
-261 -66 0
-394 -64 0
-395 -65 0
-396 -66 0
-496 -64 0
-497 -65 0
-498 -66 0
-208 -67 0
-209 -68 0
-210 -69 0
-286 -67 0
-287 -68 0
-288 -69 0
-346 -67 0
-347 -68 0
-348 -69 0
-352 -67 0
-353 -68 0
-354 -69 0
-487 -67 0
-488 -68 0
-489 -69 0
-85 -70 0
-86 -71 0
-87 -72 0
-106 -70 0
-107 -71 0
-108 -72 0
-115 -70 0
-116 -71 0
-117 -72 0
-214 -70 0
-215 -71 0
-216 -72 0
-319 -70 0
-320 -71 0
-321 -72 0
-352 -70 0
-353 -71 0
-354 -72 0
-367 -70 0
-368 -71 0
-369 -72 0
-409 -70 0
-410 -71 0
-411 -72 0
-88 -73 0
-89 -74 0
-90 -75 0
-292 -73 0
-293 -74 0
-294 -75 0
-325 -73 0
-326 -74 0
-327 -75 0
-478 -73 0
-479 -74 0
-480 -75 0
-523 -73 0
-524 -74 0
-525 -75 0
-139 -76 0
-140 -77 0
-141 -78 0
-178 -76 0
-179 -77 0
-180 -78 0
-208 -76 0
-209 -77 0
-210 -78 0
-301 -76 0
-302 -77 0
-303 -78 0
-331 -76 0
-332 -77 0
-333 -78 0
-415 -76 0
-416 -77 0
-417 -78 0
-127 -79 0
-128 -80 0
-129 -81 0
-178 -79 0
-179 -80 0
-180 -81 0
-205 -79 0
-206 -80 0
-207 -81 0
-259 -79 0
-260 -80 0
-261 -81 0
-322 -79 0
-323 -80 0
-324 -81 0
-409 -79 0
-410 -80 0
-411 -81 0
-424 -79 0
-425 -80 0
-426 -81 0
-94 -82 0
-95 -83 0
-96 -84 0
-100 -82 0
-101 -83 0
-102 -84 0
-145 -82 0
-146 -83 0
-147 -84 0
-160 -82 0
-161 -83 0
-162 -84 0
-325 -82 0
-326 -83 0
-327 -84 0
-346 -82 0
-347 -83 0
-348 -84 0
-244 -85 0
-245 -86 0
-246 -87 0
-340 -85 0
-341 -86 0
-342 -87 0
-466 -85 0
-467 -86 0
-468 -87 0
-481 -85 0
-482 -86 0
-483 -87 0
-223 -88 0
-224 -89 0
-225 -90 0
-292 -88 0
-293 -89 0
-294 -90 0
-307 -88 0
-308 -89 0
-309 -90 0
-358 -88 0
-359 -89 0
-360 -90 0
-181 -91 0
-182 -92 0
-183 -93 0
-280 -91 0
-281 -92 0
-282 -93 0
-289 -91 0
-290 -92 0
-291 -93 0
-472 -91 0
-473 -92 0
-474 -93 0
-265 -94 0
-266 -95 0
-267 -96 0
-271 -94 0
-272 -95 0
-273 -96 0
-319 -94 0
-320 -95 0
-321 -96 0
-370 -94 0
-371 -95 0
-372 -96 0
-109 -97 0
-110 -98 0
-111 -99 0
-190 -97 0
-191 -98 0
-192 -99 0
-301 -97 0
-302 -98 0
-303 -99 0
-310 -97 0
-311 -98 0
-312 -99 0
-133 -100 0
-134 -101 0
-135 -102 0
-214 -100 0
-215 -101 0
-216 -102 0
-304 -100 0
-305 -101 0
-306 -102 0
-178 -103 0
-179 -104 0
-180 -105 0
-280 -103 0
-281 -104 0
-282 -105 0
-304 -103 0
-305 -104 0
-306 -105 0
-469 -103 0
-470 -104 0
-471 -105 0
-118 -106 0
-119 -107 0
-120 -108 0
-286 -106 0
-287 -107 0
-288 -108 0
-364 -106 0
-365 -107 0
-366 -108 0
-421 -106 0
-422 -107 0
-423 -108 0
-175 -109 0
-176 -110 0
-177 -111 0
-448 -109 0
-449 -110 0
-450 -111 0
-490 -109 0
-491 -110 0
-492 -111 0
-160 -112 0
-161 -113 0
-162 -114 0
-172 -112 0
-173 -113 0
-174 -114 0
-436 -112 0
-437 -113 0
-438 -114 0
-457 -112 0
-458 -113 0
-459 -114 0
-481 -112 0
-482 -113 0
-483 -114 0
-487 -112 0
-488 -113 0
-489 -114 0
-238 -115 0
-239 -116 0
-240 -117 0
-376 -115 0
-377 -116 0
-378 -117 0
-436 -115 0
-437 -116 0
-438 -117 0
-505 -115 0
-506 -116 0
-507 -117 0
-175 -118 0
-176 -119 0
-177 -120 0
-343 -118 0
-344 -119 0
-345 -120 0
-424 -118 0
-425 -119 0
-426 -120 0
-250 -121 0
-251 -122 0
-252 -123 0
-253 -121 0
-254 -122 0
-255 -123 0
-283 -121 0
-284 -122 0
-285 -123 0
-304 -121 0
-305 -122 0
-306 -123 0
-352 -121 0
-353 -122 0
-354 -123 0
-355 -121 0
-356 -122 0
-357 -123 0
-454 -121 0
-455 -122 0
-456 -123 0
-196 -124 0
-197 -125 0
-198 -126 0
-250 -124 0
-251 -125 0
-252 -126 0
-325 -124 0
-326 -125 0
-327 -126 0
-406 -124 0
-407 -125 0
-408 -126 0
-340 -127 0
-341 -128 0
-342 -129 0
-409 -127 0
-410 -128 0
-411 -129 0
-496 -127 0
-497 -128 0
-498 -129 0
-499 -127 0
-500 -128 0
-501 -129 0
-265 -130 0
-266 -131 0
-267 -132 0
-274 -130 0
-275 -131 0
-276 -132 0
-286 -130 0
-287 -131 0
-288 -132 0
-226 -133 0
-227 -134 0
-228 -135 0
-418 -133 0
-419 -134 0
-420 -135 0
-217 -136 0
-218 -137 0
-219 -138 0
-277 -136 0
-278 -137 0
-279 -138 0
-451 -136 0
-452 -137 0
-453 -138 0
-517 -136 0
-518 -137 0
-519 -138 0
-406 -139 0
-407 -140 0
-408 -141 0
-436 -139 0
-437 -140 0
-438 -141 0
-214 -142 0
-215 -143 0
-216 -144 0
-424 -142 0
-425 -143 0
-426 -144 0
-448 -142 0
-449 -143 0
-450 -144 0
-523 -142 0
-524 -143 0
-525 -144 0
-211 -145 0
-212 -146 0
-213 -147 0
-406 -145 0
-407 -146 0
-408 -147 0
-415 -145 0
-416 -146 0
-417 -147 0
-421 -145 0
-422 -146 0
-423 -147 0
-430 -145 0
-431 -146 0
-432 -147 0
-451 -145 0
-452 -146 0
-453 -147 0
-499 -145 0
-500 -146 0
-501 -147 0
-157 -148 0
-158 -149 0
-159 -150 0
-247 -148 0
-248 -149 0
-249 -150 0
-289 -148 0
-290 -149 0
-291 -150 0
-346 -148 0
-347 -149 0
-348 -150 0
-193 -151 0
-194 -152 0
-195 -153 0
-304 -151 0
-305 -152 0
-306 -153 0
-400 -151 0
-401 -152 0
-402 -153 0
-445 -151 0
-446 -152 0
-447 -153 0
-478 -151 0
-479 -152 0
-480 -153 0
-517 -151 0
-518 -152 0
-519 -153 0
-220 -154 0
-221 -155 0
-222 -156 0
-364 -154 0
-365 -155 0
-366 -156 0
-232 -157 0
-233 -158 0
-234 -159 0
-262 -157 0
-263 -158 0
-264 -159 0
-301 -157 0
-302 -158 0
-303 -159 0
-361 -157 0
-362 -158 0
-363 -159 0
-391 -157 0
-392 -158 0
-393 -159 0
-394 -157 0
-395 -158 0
-396 -159 0
-460 -157 0
-461 -158 0
-462 -159 0
-442 -160 0
-443 -161 0
-444 -162 0
-421 -163 0
-422 -164 0
-423 -165 0
-328 -169 0
-329 -170 0
-330 -171 0
-397 -169 0
-398 -170 0
-399 -171 0
-451 -169 0
-452 -170 0
-453 -171 0
-466 -169 0
-467 -170 0
-468 -171 0
-295 -172 0
-296 -173 0
-297 -174 0
-298 -172 0
-299 -173 0
-300 -174 0
-379 -172 0
-380 -173 0
-381 -174 0
-502 -172 0
-503 -173 0
-504 -174 0
-358 -175 0
-359 -176 0
-360 -177 0
-421 -175 0
-422 -176 0
-423 -177 0
-238 -178 0
-239 -179 0
-240 -180 0
-250 -178 0
-251 -179 0
-252 -180 0
-274 -178 0
-275 -179 0
-276 -180 0
-316 -178 0
-317 -179 0
-318 -180 0
-370 -178 0
-371 -179 0
-372 -180 0
-238 -181 0
-239 -182 0
-240 -183 0
-397 -181 0
-398 -182 0
-399 -183 0
-223 -184 0
-224 -185 0
-225 -186 0
-292 -184 0
-293 -185 0
-294 -186 0
-430 -190 0
-431 -191 0
-432 -192 0
-505 -190 0
-506 -191 0
-507 -192 0
-199 -193 0
-200 -194 0
-201 -195 0
-256 -193 0
-257 -194 0
-258 -195 0
-298 -193 0
-299 -194 0
-300 -195 0
-364 -193 0
-365 -194 0
-366 -195 0
-457 -193 0
-458 -194 0
-459 -195 0
-223 -196 0
-224 -197 0
-225 -198 0
-226 -196 0
-227 -197 0
-228 -198 0
-313 -196 0
-314 -197 0
-315 -198 0
-430 -196 0
-431 -197 0
-432 -198 0
-211 -199 0
-212 -200 0
-213 -201 0
-268 -199 0
-269 -200 0
-270 -201 0
-457 -199 0
-458 -200 0
-459 -201 0
-466 -199 0
-467 -200 0
-468 -201 0
-211 -202 0
-212 -203 0
-213 -204 0
-307 -202 0
-308 -203 0
-309 -204 0
-412 -202 0
-413 -203 0
-414 -204 0
-481 -202 0
-482 -203 0
-483 -204 0
-487 -202 0
-488 -203 0
-489 -204 0
-289 -205 0
-290 -206 0
-291 -207 0
-301 -205 0
-302 -206 0
-303 -207 0
-415 -205 0
-416 -206 0
-417 -207 0
-511 -205 0
-512 -206 0
-513 -207 0
-253 -211 0
-254 -212 0
-255 -213 0
-349 -217 0
-350 -218 0
-351 -219 0
-457 -217 0
-458 -218 0
-459 -219 0
-493 -217 0
-494 -218 0
-495 -219 0
-235 -220 0
-236 -221 0
-237 -222 0
-247 -220 0
-248 -221 0
-249 -222 0
-466 -220 0
-467 -221 0
-468 -222 0
-484 -220 0
-485 -221 0
-486 -222 0
-352 -223 0
-353 -224 0
-354 -225 0
-328 -226 0
-329 -227 0
-330 -228 0
-502 -226 0
-503 -227 0
-504 -228 0
-280 -232 0
-281 -233 0
-282 -234 0
-307 -232 0
-308 -233 0
-309 -234 0
-361 -232 0
-362 -233 0
-363 -234 0
-244 -235 0
-245 -236 0
-246 -237 0
-259 -235 0
-260 -236 0
-261 -237 0
-322 -235 0
-323 -236 0
-324 -237 0
-508 -241 0
-509 -242 0
-510 -243 0
-355 -244 0
-356 -245 0
-357 -246 0
-481 -244 0
-482 -245 0
-483 -246 0
-253 -250 0
-254 -251 0
-255 -252 0
-430 -250 0
-431 -251 0
-432 -252 0
-436 -250 0
-437 -251 0
-438 -252 0
-469 -250 0
-470 -251 0
-471 -252 0
-346 -256 0
-347 -257 0
-348 -258 0
-397 -256 0
-398 -257 0
-399 -258 0
-481 -256 0
-482 -257 0
-483 -258 0
-484 -256 0
-485 -257 0
-486 -258 0
-505 -256 0
-506 -257 0
-507 -258 0
-514 -259 0
-515 -260 0
-516 -261 0
-271 -262 0
-272 -263 0
-273 -264 0
-295 -262 0
-296 -263 0
-297 -264 0
-310 -262 0
-311 -263 0
-312 -264 0
-319 -262 0
-320 -263 0
-321 -264 0
-517 -262 0
-518 -263 0
-519 -264 0
-508 -265 0
-509 -266 0
-510 -267 0
-406 -268 0
-407 -269 0
-408 -270 0
-460 -274 0
-461 -275 0
-462 -276 0
-487 -274 0
-488 -275 0
-489 -276 0
-367 -277 0
-368 -278 0
-369 -279 0
-388 -277 0
-389 -278 0
-390 -279 0
-505 -277 0
-506 -278 0
-507 -279 0
-313 -280 0
-314 -281 0
-315 -282 0
-331 -280 0
-332 -281 0
-333 -282 0
-427 -280 0
-428 -281 0
-429 -282 0
-439 -280 0
-440 -281 0
-441 -282 0
-349 -283 0
-350 -284 0
-351 -285 0
-394 -283 0
-395 -284 0
-396 -285 0
-508 -286 0
-509 -287 0
-510 -288 0
-514 -286 0
-515 -287 0
-516 -288 0
-337 -289 0
-338 -290 0
-339 -291 0
-367 -289 0
-368 -290 0
-369 -291 0
-490 -289 0
-491 -290 0
-492 -291 0
-343 -292 0
-344 -293 0
-345 -294 0
-418 -292 0
-419 -293 0
-420 -294 0
-457 -292 0
-458 -293 0
-459 -294 0
-313 -295 0
-314 -296 0
-315 -297 0
-364 -295 0
-365 -296 0
-366 -297 0
-373 -295 0
-374 -296 0
-375 -297 0
-391 -298 0
-392 -299 0
-393 -300 0
-310 -301 0
-311 -302 0
-312 -303 0
-511 -301 0
-512 -302 0
-513 -303 0
-367 -304 0
-368 -305 0
-369 -306 0
-442 -304 0
-443 -305 0
-444 -306 0
-484 -304 0
-485 -305 0
-486 -306 0
-400 -307 0
-401 -308 0
-402 -309 0
-406 -307 0
-407 -308 0
-408 -309 0
-451 -307 0
-452 -308 0
-453 -309 0
-514 -307 0
-515 -308 0
-516 -309 0
-325 -310 0
-326 -311 0
-327 -312 0
-460 -310 0
-461 -311 0
-462 -312 0
-523 -310 0
-524 -311 0
-525 -312 0
-340 -316 0
-341 -317 0
-342 -318 0
-475 -316 0
-476 -317 0
-477 -318 0
-424 -319 0
-425 -320 0
-426 -321 0
-430 -322 0
-431 -323 0
-432 -324 0
-463 -322 0
-464 -323 0
-465 -324 0
-490 -322 0
-491 -323 0
-492 -324 0
-391 -325 0
-392 -326 0
-393 -327 0
-442 -328 0
-443 -329 0
-444 -330 0
-493 -331 0
-494 -332 0
-495 -333 0
-400 -334 0
-401 -335 0
-402 -336 0
-469 -334 0
-470 -335 0
-471 -336 0
-472 -337 0
-473 -338 0
-474 -339 0
-472 -343 0
-473 -344 0
-474 -345 0
-376 -346 0
-377 -347 0
-378 -348 0
-505 -346 0
-506 -347 0
-507 -348 0
-451 -349 0
-452 -350 0
-453 -351 0
-514 -352 0
-515 -353 0
-516 -354 0
-367 -358 0
-368 -359 0
-369 -360 0
-439 -358 0
-440 -359 0
-441 -360 0
-382 -361 0
-383 -362 0
-384 -363 0
-385 -361 0
-386 -362 0
-387 -363 0
-469 -361 0
-470 -362 0
-471 -363 0
-367 -364 0
-368 -365 0
-369 -366 0
-409 -364 0
-410 -365 0
-411 -366 0
-415 -364 0
-416 -365 0
-417 -366 0
-412 -367 0
-413 -368 0
-414 -369 0
-394 -373 0
-395 -374 0
-396 -375 0
-415 -373 0
-416 -374 0
-417 -375 0
-460 -376 0
-461 -377 0
-462 -378 0
-478 -376 0
-479 -377 0
-480 -378 0
-481 -376 0
-482 -377 0
-483 -378 0
-496 -376 0
-497 -377 0
-498 -378 0
-391 -379 0
-392 -380 0
-393 -381 0
-409 -388 0
-410 -389 0
-411 -390 0
-406 -394 0
-407 -395 0
-408 -396 0
-445 -394 0
-446 -395 0
-447 -396 0
-493 -394 0
-494 -395 0
-495 -396 0
-487 -397 0
-488 -398 0
-489 -399 0
-517 -397 0
-518 -398 0
-519 -399 0
-478 -400 0
-479 -401 0
-480 -402 0
-442 -403 0
-443 -404 0
-444 -405 0
-511 -403 0
-512 -404 0
-513 -405 0
-520 -403 0
-521 -404 0
-522 -405 0
-520 -406 0
-521 -407 0
-522 -408 0
-505 -409 0
-506 -410 0
-507 -411 0
-478 -412 0
-479 -413 0
-480 -414 0
-490 -415 0
-491 -416 0
-492 -417 0
-493 -424 0
-494 -425 0
-495 -426 0
-502 -424 0
-503 -425 0
-504 -426 0
-469 -427 0
-470 -428 0
-471 -429 0
-508 -430 0
-509 -431 0
-510 -432 0
-463 -439 0
-464 -440 0
-465 -441 0
-484 -445 0
-485 -446 0
-486 -447 0
-523 -445 0
-524 -446 0
-525 -447 0
-454 -448 0
-455 -449 0
-456 -450 0
-466 -448 0
-467 -449 0
-468 -450 0
-499 -454 0
-500 -455 0
-501 -456 0
-517 -457 0
-518 -458 0
-519 -459 0
-496 -466 0
-497 -467 0
-498 -468 0
-508 -466 0
-509 -467 0
-510 -468 0
-496 -475 0
-497 -476 0
-498 -477 0
-493 -481 0
-494 -482 0
-495 -483 0
-523 -502 0
-524 -503 0
-525 -504 0
